&CONTROL
calculation = 'relax' ,
restart_mode = 'from_scratch' ,
outdir = '/tmp' ,
pseudo_dir = '/home/cristian/Escritorio/Proyecto_Grafeno/pseudopotenciales', 
prefix = 'vanadio-top-2.1' ,
verbosity = 'high'
/
&SYSTEM
  ibrav = 4,
  a = 12.32648675,
  c = 10,
  nat  = 52,
  ntyp = 3,
  ecutwfc = 70,
  ecutrho=490,
  occupations='smearing',
  smearing='mv',
  degauss=0.001,
  nspin = 2,
  starting_magnetization(1)=0.5,
  starting_magnetization(2)=0.3,
  starting_magnetization(3)=0.8,
  /
&ELECTRONS
  electron_maxstep = 400,
  conv_thr = 1.0d-10
  mixing_mode      = 'plain'
  mixing_beta      =  0.3D0
  diagonalization  = 'david'
  startingwfc      = 'atomic+random'
  mixing_ndim = 4,

/
&IONS
ion_dynamics      = 'bfgs'
/
ATOMIC_SPECIES
H   1.00794    H.pbe-rrkjus.UPF
C   12.01070    C.pbe-n-rrkjus_psl.1.0.0.UPF 
V   50.9415    V.pbe-spnl-rrkjus_psl.1.0.0.UPF  
ATOMIC_POSITIONS (angstrom)
H        2.851301908   5.806509307   2.717708151
H        2.082802477   5.593340418   2.763594317
C        0.002442704  -0.001001626   0.031986439
C       -0.005787452   1.414157935   0.034180167
C       -1.233494159   2.134999361   0.028036777
C       -1.232227684   3.559529649   0.017551798
C       -2.466071234   4.271019036   0.027713146
C       -2.470937830   5.695143237   0.029964759
C       -3.697190497   6.408704110   0.028315829
C       -3.697431954   7.830194767   0.018973938
C       -4.927648219   8.542643993   0.018825581
C       -4.929808667   9.962303665   0.019298807
C        2.467245303  -0.005887936   0.021096699
C        2.466784212   1.408835460   0.009660184
C        1.224958279   2.105404583  -0.003582678
C        1.223309435   3.519341357  -0.112546006
C       -0.002086212   4.266029054  -0.059699294
C       -0.020810803   5.703527216  -0.092538641
C       -1.252206976   6.412441950   0.000347960
C       -1.239796016   7.835594607   0.008525658
C       -2.467407204   8.544198472   0.019427458
C       -2.463541596   9.963126209   0.018480954
C        4.930618447   0.000303086   0.036707735
C        4.942808368   1.412105301   0.032419301
C        3.715106959   2.104732075  -0.018922739
C        3.730521742   3.509171006  -0.132458427
C        2.482298245   4.137539600  -0.230121380
V        2.359824263   5.584560844   0.861993694
C        1.149716151   6.488256458  -0.171674618
C        1.213702627   7.884307141  -0.122387400
C       -0.013807732   8.570456216  -0.025301985
C       -0.002291496   9.978837429   0.026114711
C        7.395565866   0.011949319   0.022818426
C        7.402112967   1.429511981   0.019569852
C        6.169968846   2.132658817   0.025760682
C        6.170679462   3.557161173   0.010772886
C        4.945787254   4.259967280  -0.065491833
C        4.953944631   5.697528708  -0.087679856
C        3.766465586   6.456548412  -0.063550292
C        3.713073992   7.860670472  -0.095233026
C        2.466006509   8.568440313  -0.066697635
C        2.467155900   9.976515037   0.006185507
C        9.866091134   0.011033178   0.022181523
C        9.860992357   1.429949270   0.020154794
C        8.631127731   2.138886244   0.008558183
C        8.631990808   3.558786900   0.020739314
C        7.403334772   4.271583663   0.024720482
C        7.402859554   5.693883019   0.020197752
C        6.180875285   6.409151769  -0.018868035
C        6.169982254   7.833882764   0.004322501
C        4.943307697   8.559999308  -0.028035509
C        4.933244206   9.972704626   0.017883389
K_POINTS automatic
1  1  1  0  0  0 
