
&CONTROL
calculation = 'scf' ,
restart_mode = 'from_scratch' ,
outdir = '/tmp' ,
pseudo_dir = '/home/cristian/Escritorio/Proyecto_Grafeno/pseudopotenciales', 
prefix = 'ni-95' ,
verbosity = 'low'
/
&SYSTEM
  ibrav = 0,
  nat  = 4,
  ntyp = 2,
  ecutwfc = 95,
  occupations='smearing',
  smearing='methfessel-paxton',
  degauss=0.03,
  nspin = 2,
  starting_magnetization(1)=0.1,
  starting_magnetization(2)=-0.1,
  /
&ELECTRONS
      electron_maxstep = 400,
      conv_thr = 1.0d-6
      diagonalization  = 'david'
/
ATOMIC_SPECIES
Ni1   58.6934    Ni.pbe-spn-rrkjus_psl.1.0.0.UPF
Ni2   58.6934    Ni.pbe-spn-rrkjus_psl.1.0.0.UPF
Ni1   58.6934    Ni.pbe-spn-rrkjus_psl.1.0.0.UPF
Ni2   58.6934    Ni.pbe-spn-rrkjus_psl.1.0.0.UPF
ATOMIC_POSITIONS  (angstrom)
Ni1   0.0000  0.0000  0.0000	
Ni2   1.7600  1.7600  0.0000
Ni1   0.0000  1.7600  1.7600
Ni2   1.7600  0.0000  1.7600  
CELL_PARAMETERS {angstrom}
   3.52  0.00  0.00	
   0.00  3.52  0.00	
   0.00  0.00  3.52
K_POINTS automatic
8  8  8  1  1  1
