&CONTROL
calculation = 'relax' ,
restart_mode = 'from_scratch' ,
outdir = '/tmp' ,
pseudo_dir = '/home/cristian/Escritorio/Proyecto_Grafeno/pseudopotenciales', 
prefix = 'manganeso-sixhollow-3.0' ,
verbosity = 'high'
/
&SYSTEM
  ibrav = 4,
  a = 12.32648675,
  c = 10,
  nat  = 52,
  ntyp = 3,
  ecutwfc = 70,
  ecutrho=490,
  occupations='smearing',
  smearing='mv',
  degauss=0.001,
  input_dft='rvv10'
  nspin = 2,
  starting_magnetization(1)=0.5,
  starting_magnetization(2)=0.3,
  starting_magnetization(3)=0.8,
  /
&ELECTRONS
  electron_maxstep = 400,
  conv_thr = 1.0d-10
  mixing_mode      = 'plain'
  diagonalization  = 'david'
  startingwfc      = 'atomic+random'

/
&IONS
ion_dynamics      = 'bfgs'
/
ATOMIC_SPECIES
H   1.00794    H.pbe-rrkjus.UPF
C   12.0107    C.pbe-n-rrkjus_psl.1.0.0.UPF
Mn  54.938044  Mn.pbe-spn-rrkjus_psl.0.3.1.UPF
ATOMIC_POSITIONS (angstrom)
H        3.459798279   4.978469171   3.134828195
H        4.142425968   4.853405490   2.812274783
C       -0.005513621   0.003419399  -0.152569497
C       -0.009031470   1.423568578  -0.113600636
C       -1.239348334   2.135893073  -0.100379699
C       -1.238088667   3.561873379  -0.043507230
C       -2.473323397   4.272952161  -0.085800995
C       -2.474099809   5.693296522  -0.096044357
C       -3.701847010   6.407227160  -0.137302139
C       -3.702645180   7.830790395  -0.164248693
C       -4.934285598   8.543425115  -0.167071645
C       -4.935264088   9.966096056  -0.171698703
C        2.460558884   0.001277913  -0.158641669
C        2.459915257   1.421159052  -0.080234991
C        1.222204819   2.127535730  -0.042611227
C        1.218711327   3.542005358   0.130712282
C       -0.016188345   4.269709825   0.100435118
C       -0.028626450   5.700558625   0.170574981
C       -1.249370020   6.408813869  -0.015910906
C       -1.242376277   7.833687647  -0.060610951
C       -2.471156330   8.543573493  -0.150947451
C       -2.469915479   9.966159909  -0.161527666
C        4.926178804   0.002357076  -0.134104106
C        4.931181295   1.421835079  -0.091303723
C        3.699516070   2.124110388  -0.028860524
C        3.701253177   3.536936579   0.141461082
C        2.459807409   4.173013792   0.346161528
Mn       2.500194253   5.688304171   1.412256835
C        1.139541281   6.459817435   0.424124152
C        1.211757071   7.850119688   0.164485111
C       -0.011992184   8.553305364  -0.017838228
C       -0.004569782   9.971652386  -0.096589089
C        7.389091402   0.005870085  -0.085835991
C        7.392567044   1.426650064  -0.099817834
C        6.161177172   2.134400709  -0.070449555
C        6.161889406   3.558554437  -0.021147871
C        4.936207979   4.265968151   0.106198239
C        4.949862320   5.700474102   0.118745542
C        3.776747604   6.457714269   0.309374863
C        3.704488619   7.848182601   0.100497008
C        2.456976318   8.554260159   0.084003984
C        2.459080528   9.967423194  -0.051333687
C        9.857114209   0.005827391  -0.106550314
C        9.856516934   1.426258530  -0.120471385
C        8.623622673   2.138104291  -0.107563424
C        8.624197887   3.559725353  -0.102497302
C        7.395331201   4.271741190  -0.076160200
C        7.397807228   5.693518450  -0.100644360
C        6.172912859   6.408563081  -0.049550026
C        6.162258493   7.833584740  -0.101442015
C        4.931366549   8.552951339  -0.066849509
C        4.926141274   9.971774130  -0.124416103
K_POINTS automatic
1  1  1  0  0  0 
