&CONTROL
calculation = 'relax' ,
restart_mode = 'from_scratch' ,
outdir = '/tmp' ,
pseudo_dir = '/home/cristian/Escritorio/Proyecto_Grafeno/pseudopotenciales', 
prefix = 'vanadio-top-2.1' ,
verbosity = 'high'
/
&SYSTEM
  ibrav = 4,
  a = 12.32648675,
  c = 10,
  nat  = 52,
  ntyp = 3,
  ecutwfc = 70,
  ecutrho=490,
  occupations='smearing',
  smearing='mv',
  degauss=0.001,
  input_dft='rvv10'
  nspin = 2,
  starting_magnetization(1)=0.5,
  starting_magnetization(2)=0.3,
  starting_magnetization(3)=0.8,
  /
&ELECTRONS
  electron_maxstep = 400,
  conv_thr = 1.0d-10
  mixing_mode      = 'plain'
  mixing_beta      =  0.3D0
  diagonalization  = 'david'
  startingwfc      = 'atomic+random'
  mixing_ndim = 4,

/
&IONS
ion_dynamics      = 'bfgs'
/
ATOMIC_SPECIES
H   1.00794    H.pbe-rrkjus.UPF
C   12.01070    C.pbe-n-rrkjus_psl.1.0.0.UPF 
V   50.9415    V.pbe-spnl-rrkjus_psl.1.0.0.UPF  
ATOMIC_POSITIONS (angstrom)
H        2.904293573   5.387387937   3.439393887
H        2.319665161   5.902475682   3.405163761
C       -0.010394435   0.005819221  -0.282654645
C       -0.016571597   1.423410861  -0.227445911
C       -1.245926504   2.140168496  -0.165971967
C       -1.243691316   3.563174500  -0.053154843
C       -2.477936180   4.274161470  -0.070182712
C       -2.476735010   5.696220235  -0.029680536
C       -3.702821911   6.410333044  -0.115793964
C       -3.706963796   7.831971964  -0.138721441
C       -4.938735612   8.544969796  -0.230632949
C       -4.940813042   9.967235979  -0.272675972
C        2.455657505   0.000756799  -0.228309182
C        2.454586178   1.419905332  -0.185329631
C        1.212458730   2.127343318  -0.155071769
C        1.203597661   3.528371837   0.074643096
C       -0.019735183   4.265292860   0.118262003
C       -0.029036106   5.695903307   0.267719307
C       -1.251362152   6.408284299   0.100603013
C       -1.249669197   7.834847225   0.071091333
C       -2.475899781   8.543218918  -0.069021155
C       -2.474747444   9.965058726  -0.139576273
C        4.921829624  -0.001773717  -0.116375672
C        4.925322838   1.418984232  -0.149459863
C        3.692836638   2.122179043  -0.118548736
C        3.690327213   3.538369891   0.045496075
C        2.441913753   4.164196355   0.297642084
V        2.643303055   5.628389736   1.452096931
C        1.151275803   6.444343189   0.542428543
C        1.213377029   7.842740831   0.267392502
C       -0.014555439   8.549273639   0.104531383
C       -0.009776442   9.967542906  -0.028042179
C        7.385193081   0.006389090  -0.056642702
C        7.386525779   1.427782639  -0.119098093
C        6.155003209   2.136470094  -0.141354012
C        6.151807279   3.561176947  -0.133501667
C        4.924155758   4.270824172  -0.021154025
C        4.947722944   5.704600964  -0.000920463
C        3.781896959   6.471961440   0.233399980
C        3.708018302   7.864721880   0.033255241
C        2.457289763   8.553768906   0.109384814
C        2.453949462   9.967273980  -0.041728165
C        9.848890403   0.007386374  -0.158391707
C        9.848269028   1.429587134  -0.163688142
C        8.617557597   2.140741172  -0.129801036
C        8.618181031   3.562375936  -0.132570987
C        7.387887395   4.273194679  -0.152013014
C        7.397356610   5.695949587  -0.162027990
C        6.173302319   6.411761447  -0.153919475
C        6.159326036   7.835736451  -0.207278890
C        4.926044044   8.561184009  -0.180360354
C        4.922011588   9.977791420  -0.231403828
K_POINTS automatic
1  1  1  0  0  0 
