&CONTROL
calculation = 'relax' ,
restart_mode = 'from_scratch' ,
outdir = '/tmp' ,
pseudo_dir = '/home/cristian/Escritorio/Proyecto_Grafeno/pseudopotenciales', 
prefix = 'vanadio-top-2.1' ,
verbosity = 'high'
/
&SYSTEM
  ibrav = 4,
  a = 12.32648675,
  c = 10,
  nat  = 52,
  ntyp = 3,
  ecutwfc = 70,
  ecutrho=490,
  occupations='smearing',
  smearing='mv',
  degauss=0.001,
  input_dft='rvv10'
  nspin = 2,
  starting_magnetization(1)=0.5,
  starting_magnetization(2)=0.3,
  starting_magnetization(3)=0.8,
  /
&ELECTRONS
  electron_maxstep = 400,
  conv_thr = 1.0d-10
  mixing_mode      = 'plain'
  mixing_beta      =  0.3D0
  diagonalization  = 'david'
  startingwfc      = 'atomic+random'
  mixing_ndim = 4,

/
&IONS
ion_dynamics      = 'bfgs'
/
ATOMIC_SPECIES
H   1.00794    H.pbe-rrkjus.UPF
C   12.0107    C.pbe-n-rrkjus_psl.1.0.0.UPF
V   50.9415    V.pbe-spnl-rrkjus_psl.1.0.0.UPF
ATOMIC_POSITIONS (angstrom)
H        2.170831541   5.863370269   3.229329900
H        2.833696343   5.480665097   3.384414667
C       -0.013379632   0.007724734  -0.274732246
C       -0.018062962   1.424935058  -0.222459671
C       -1.244859230   2.143840093  -0.169301886
C       -1.240210866   3.568918301  -0.054587484
C       -2.473058487   4.278177032  -0.077515311
C       -2.465973107   5.700276012  -0.041865381
C       -3.694480194   6.411935997  -0.137509765
C       -3.702890499   7.833915019  -0.164380340
C       -4.934184737   8.548809232  -0.237187064
C       -4.943391443   9.970768824  -0.278477771
C        2.455908414  -0.001275287  -0.237187064
C        2.456228751   1.415991907  -0.183536587
C        1.211941390   2.123555004  -0.159670869
C        1.201057267   3.528812384   0.027940689
C       -0.017263394   4.271908649   0.115943385
C       -0.020861580   5.701718620   0.310660532
C       -1.244176037   6.413255062   0.123224417
C       -1.250008072   7.838392941   0.086890037
C       -2.474043228   8.545089967  -0.087083149
C       -2.472571292   9.964890395  -0.164380340
C        4.926347193  -0.006454297  -0.137509765
C        4.930540466   1.413272698  -0.162255940
C        3.697795243   2.112085790  -0.134348264
C        3.696112018   3.531894592  -0.016090338
C        2.446790017   4.165489126   0.171001875
V        2.715011807   5.549187646   1.384898818
C        1.166184639   6.443403428   0.610134218
C        1.214979416   7.842258014   0.310660532
C       -0.012886448   8.545911189   0.123224417
C       -0.006327013   9.960508015  -0.041865381
C        7.384947515   0.002642959  -0.077515311
C        7.388515308   1.425604615  -0.138605172
C        6.158538396   2.136244510  -0.150776171
C        6.158569815   3.561048503  -0.133809483
C        4.927976865   4.271531674  -0.050496347
C        4.952588944   5.708176467  -0.016090338
C        3.779218981   6.473323790   0.171001875
C        3.707730839   7.870498369   0.027940689
C        2.455030265   8.554046878   0.115943385
C        2.452364030   9.964645632  -0.054587484
C        9.847437153   0.006159671  -0.169301886
C        9.848765578   1.430512986  -0.173767330
C        8.620599641   2.139594920  -0.142590605
C        8.622891217   3.563606405  -0.138605172
C        7.392470559   4.273477709  -0.150776171
C        7.404583549   5.698441019  -0.162255940
C        6.183021047   6.416623151  -0.134348264
C        6.165072788   7.839898217  -0.183536587
C        4.930161491   8.563701131  -0.159670869
C        4.920181935   9.978226121  -0.222459671
K_POINTS automatic
1  1  1  0  0  0 
