&CONTROL
calculation = 'relax' ,
restart_mode = 'from_scratch' ,
outdir = '/tmp' ,
pseudo_dir = '/home/cristian/Escritorio/Proyecto_Grafeno/pseudopotenciales', 
prefix = 'niquel-sixhollow-2.8' ,
verbosity = 'high'
/
&SYSTEM
  ibrav = 4,
  a = 12.32648675,
  c = 10,
  nat  = 52,
  ntyp = 3,
  ecutwfc = 70,
  ecutrho=490,
  occupations='smearing',
  smearing='mv',
  degauss=0.01,
  input_dft='rvv10'
  nspin = 2,
  starting_magnetization(1)=0.5,
  starting_magnetization(2)=0.3,
  starting_magnetization(3)=1,
  /
&ELECTRONS
  electron_maxstep = 400,
  conv_thr = 1.0d-9
  mixing_mode      = 'plain'
  diagonalization  = 'david'
  startingwfc      = 'atomic+random'

/
&IONS
ion_dynamics      = 'bfgs'
/
ATOMIC_SPECIES
H   1.00794    H.pbe-rrkjus.UPF
C   12.0107    C.pbe-n-rrkjus_psl.1.0.0.UPF
Ni  58.6934    Ni.pbe-spn-rrkjus_psl.1.0.0.UPF
ATOMIC_POSITIONS (angstrom)
H        3.893135793   4.868997446   3.464713640
H        3.762987217   4.944138761   2.723155689
C        0.002682008  -0.001548458   0.103531297
C       -0.008127824   1.415537767   0.065130867
C       -1.240267807   2.132586936   0.056205212
C       -1.237006076   3.558703764   0.035037435
C       -2.474210917   4.270653153   0.073716571
C       -2.479639363   5.696790242   0.079815953
C       -3.702635200   6.412157520   0.094577274
C       -3.699036248   7.832028339   0.092311545
C       -4.925757357   8.545150006   0.091254408
C       -4.931617006   9.963970850   0.110202930
C        2.463291087  -0.006743999   0.091254408
C        2.461142017   1.410668963   0.023721291
C        1.225504504   2.115934371  -0.003528466
C        1.214335906   3.536254320  -0.113487061
C       -0.016860293   4.257601832  -0.025938328
C       -0.023253761   5.690351195   0.007197219
C       -1.251381815   6.410629937   0.060062892
C       -1.243126385   7.834419797   0.064033097
C       -2.472365836   8.544121524   0.083106476
C       -2.469010253   9.962495856   0.092311545
C        4.922077845   0.000497384   0.094577274
C        4.926524948   1.418041728   0.078382746
C        3.694177590   2.121673888   0.008143635
C        3.704042709   3.543606317  -0.108368387
C        2.460840176   4.147033427  -0.314279697
Ni       2.380613710   5.742252477  -1.130902958
C        1.141254789   6.457796684  -0.057607794
C        1.223627804   7.850013416   0.007197219
C       -0.014215912   8.553464139   0.060062892
C       -0.010141376   9.974086225   0.079815953
C        7.390887170   0.007402932   0.073716571
C        7.391913312   1.429210952   0.103511298
C        6.157942828   2.137328835   0.092375804
C        6.153095604   3.564209040   0.063015211
C        4.936313113   4.266718739  -0.051096546
C        4.946411639   5.695452424  -0.108368387
C        3.802227165   6.470383845  -0.314279697
C        3.707925253   7.855277762  -0.113487061
C        2.467621883   8.560851192  -0.025938328
C        2.462812473   9.966977470   0.035037435
C        9.859478384   0.007809961   0.056205212
C        9.851100676   1.429164816   0.082119117
C        8.622420511   2.138543640   0.106117435
C        8.621467039   3.558860479   0.103511298
C        7.391233722   4.273451323   0.092375804
C        7.398445689   5.699534044   0.078382746
C        6.172908685   6.414962082   0.008143635
C        6.172139226   7.838304675   0.023721291
C        4.943542709   8.555765446  -0.003528466
C        4.933287797   9.974320684   0.065130867
K_POINTS automatic
1  1  1  0  0  0 
