&CONTROL
calculation = 'relax' ,
restart_mode = 'from_scratch' ,
outdir = '/tmp' ,
pseudo_dir = '/home/cristian/Escritorio/Proyecto_Grafeno/pseudopotenciales', 
prefix = 'gr-12' ,
verbosity = 'low'
/
&SYSTEM
  ibrav = 4,
  a = 12.32648675,
  c = 10,
  nat  = 52,
  ntyp = 4,
  ecutwfc = 70,
  ecutrho=490,
  occupations='smearing',
  smearing='mv',
  degauss=0.001,
  vdw_corr = 'dft-d3',
  nspin=2,
  starting_magnetization(1)=0.1
  starting_magnetization(2)=-0.1
  starting_magnetization(3)=0.3
/
&ELECTRONS
  electron_maxstep = 400,
  conv_thr = 1.0d-6
  mixing_mode      = 'plain'
  mixing_beta      = 0.3D0
  diagonalization  = 'david'
  startingwfc      = 'atomic+random'
/
&IONS
ion_dynamics      = 'bfgs'
/
ATOMIC_SPECIES
H1   1.00794    H.pbe-rrkjus.UPF
H2   1.00794    H.pbe-rrkjus.UPF
Ni   58.6934     Ni.pbe-spn-rrkjus_psl.1.0.0.UPF
C    12.0107    C.pbe-n-rrkjus_psl.1.0.0.UPF 
ATOMIC_POSITIONS (angstrom)
    H1   2.4652973500    5.692325317     2.2989662970 1 1 1
    H2   2.4652973500    6.444395393     2.2989662970 1 1 1 
    Ni   2.4652973500    5.6933603550    0.0000000000 1 1 1
    C    0.0000000000    0.0000000000    0.0000000000 0 0 0
    C    0.0000000000    1.4233400890    0.0000000000 0 0 0
    C   -1.2326486750    2.1350101330    0.0000000000 0 0 0
    C   -1.2326486750    3.5583502220    0.0000000000 0 0 0
    C   -2.4652973500    4.2700202660    0.0000000000 0 0 0
    C   -2.4652973500    5.6933603550    0.0000000000 0 0 0
    C   -3.6979460250    6.4050303990    0.0000000000 0 0 0
    C   -3.6979460250    7.8283704880    0.0000000000 0 0 0
    C   -4.9305947000    8.5400405320    0.0000000000 0 0 0
    C   -4.9305947000    9.9633806210    0.0000000000 0 0 0
    C    2.4652973500    0.0000000000    0.0000000000 0 0 0
    C    2.4652973500    1.4233400890    0.0000000000 0 0 0
    C    1.2326486750    2.1350101330    0.0000000000 0 0 0
    C    1.2326486750    3.5583502220    0.0000000000 1 1 1
    C    0.0000000000    4.2700202660    0.0000000000 0 0 0
    C    0.0000000000    5.6933603550    0.0000000000 1 1 1
    C   -1.2326486750    6.4050303990    0.0000000000 0 0 0
    C   -1.2326486750    7.8283704880    0.0000000000 0 0 0
    C   -2.4652973500    8.5400405320    0.0000000000 0 0 0
    C   -2.4652973500    9.9633806210    0.0000000000 0 0 0
    C    4.9305947000    0.0000000000    0.0000000000 0 0 0
    C    4.9305947000    1.4233400890    0.0000000000 0 0 0
    C    3.6979460250    2.1350101330    0.0000000000 0 0 0
    C    3.6979460250    3.5583502220    0.0000000000 1 1 1
    C    2.4652973500    4.2700202660    0.0000000000 1 1 1
    C    1.2326486750    6.4050303990    0.0000000000 1 1 1
    C    1.2326486750    7.8283704880    0.0000000000 1 1 1
    C    0.0000000000    8.5400405320    0.0000000000 0 0 0
    C    0.0000000000    9.9633806210    0.0000000000 0 0 0
    C    7.3958920500    0.0000000000    0.0000000000 0 0 0
    C    7.3958920500    1.4233400890    0.0000000000 0 0 0
    C    6.1632433750    2.1350101330    0.0000000000 0 0 0
    C    6.1632433750    3.5583502220    0.0000000000 0 0 0
    C    4.9305947000    4.2700202660    0.0000000000 0 0 0
    C    4.9305947000    5.6933603550    0.0000000000 1 1 1
    C    3.6979460250    6.4050303990    0.0000000000 1 1 1
    C    3.6979460250    7.8283704880    0.0000000000 1 1 1
    C    2.4652973500    8.5400405320    0.0000000000 0 0 0 
    C    2.4652973500    9.9633806210    0.0000000000 0 0 0
    C    9.8611894000    0.0000000000    0.0000000000 0 0 0
    C    9.8611894000    1.4233400890    0.0000000000 0 0 0
    C    8.6285407250    2.1350101330    0.0000000000 0 0 0
    C    8.6285407250    3.5583502220    0.0000000000 0 0 0
    C    7.3958920500    4.2700202660    0.0000000000 0 0 0
    C    7.3958920500    5.6933603550    0.0000000000 0 0 0
    C    6.1632433750    6.4050303990    0.0000000000 0 0 0
    C    6.1632433750    7.8283704880    0.0000000000 0 0 0
    C    4.9305947000    8.5400405320    0.0000000000 0 0 0
    C    4.9305947000    9.9633806210    0.0000000000 0 0 0
K_POINTS automatic
2  2  1  0  0  0 
