
&CONTROL
calculation = 'scf' ,
restart_mode = 'from_scratch' ,
outdir = '/tmp' ,
pseudo_dir = '/home/cristian/Escritorio/Proyecto_Grafeno/pseudopotenciales', 
prefix = 'cu-55' ,
verbosity = 'low'
/
&SYSTEM
  ibrav = 0,
  nat  = 4,
  ntyp = 2,
  ecutwfc = 55,
  occupations='smearing',
  smearing='methfessel-paxton',
  degauss=0.03,
  nspin = 2,
  starting_magnetization(1)=0.1,
  starting_magnetization(2)=-0.1,
  /
&ELECTRONS
      electron_maxstep = 400,
      conv_thr = 1.0d-6
      diagonalization  = 'david'
/
ATOMIC_SPECIES
Cu1   63.546    Cu.pbe-dn-rrkjus_psl.1.0.0.UPF
Cu2   63.546    Cu.pbe-dn-rrkjus_psl.1.0.0.UPF
Cu1   63.546    Cu.pbe-dn-rrkjus_psl.1.0.0.UPF
Cu2   63.546    Cu.pbe-dn-rrkjus_psl.1.0.0.UPF
ATOMIC_POSITIONS  (angstrom)
Cu1   0.0000  0.0000  0.0000	
Cu2   1.8050  1.8050  0.0000
Cu1   0.0000  1.8050  1.8050
Cu2   1.8050  0.0000  1.8050  
CELL_PARAMETERS {angstrom}
   3.61  0.00  0.00	
   0.00  3.61  0.00	
   0.00  0.00  3.61
K_POINTS automatic
8  8  8  1  1  1
