&CONTROL
calculation = 'relax' ,
restart_mode = 'from_scratch' ,
outdir = '/tmp' ,
pseudo_dir = '/home/cristian/Escritorio/Proyecto_Grafeno/pseudopotenciales', 
prefix = 'manganeso-sixhollow-3.0' ,
verbosity = 'high'
/
&SYSTEM
  ibrav = 4,
  a = 12.32648675,
  c = 10,
  nat  = 52,
  ntyp = 3,
  ecutwfc = 70,
  ecutrho=490,
  occupations='smearing',
  smearing='mv',
  degauss=0.001,
  nspin = 2,
  starting_magnetization(1)=0.5,
  starting_magnetization(2)=0.3,
  starting_magnetization(3)=0.8,
  /
&ELECTRONS
  electron_maxstep = 400,
  conv_thr = 1.0d-10
  mixing_mode      = 'plain'
  diagonalization  = 'david'
  startingwfc      = 'atomic+random'

/
&IONS
ion_dynamics      = 'bfgs'
/
ATOMIC_SPECIES
H   1.00794    H.pbe-rrkjus.UPF
C   12.0107    C.pbe-n-rrkjus_psl.1.0.0.UPF
Mn  54.938044  Mn.pbe-spn-rrkjus_psl.0.3.1.UPF
ATOMIC_POSITIONS (angstrom)
H        3.356657052   5.011697910   3.178951034
H        4.023684782   4.959950536   2.800856671
C        0.001403126  -0.000735048  -0.142924707
C       -0.005092571   1.417832396  -0.111207845
C       -1.234953257   2.131619897  -0.099559025
C       -1.234857471   3.558435629  -0.049470487
C       -2.469926507   4.270981390  -0.091902784
C       -2.472112643   5.691923567  -0.100450464
C       -3.697077648   6.407407959  -0.135312033
C       -3.697579741   7.828417306  -0.141782188
C       -4.927266016   8.542382565  -0.137656195
C       -4.930194562   9.963381810  -0.146184877
C        2.464947913  -0.003854956  -0.134808098
C        2.465051329   1.415230387  -0.074988104
C        1.226753439   2.119188235  -0.046538361
C        1.220316360   3.534652009   0.109275193
C       -0.013291988   4.265282425   0.082050918
C       -0.028243998   5.696746018   0.143926127
C       -1.248645023   6.408440320  -0.023108208
C       -1.239723899   7.832606117  -0.056760979
C       -2.467960710   8.541653402  -0.128176269
C       -2.465136105   9.963282387  -0.139154275
C        4.929041910  -0.001689398  -0.131927268
C        4.935665063   1.416291683  -0.095062954
C        3.703525869   2.116848757  -0.032621715
C        3.708726872   3.530590198   0.126185187
C        2.463215423   4.163860727   0.313287391
Mn       2.487940712   5.678603117   1.360994306
C        1.140579181   6.457657331   0.380080813
C        1.215389640   7.851257156   0.147696163
C       -0.010984789   8.552434334  -0.020248327
C       -0.002290728   9.970177335  -0.097219755
C        7.392847104   0.003669705  -0.089427796
C        7.396360784   1.423832461  -0.106403152
C        6.165320451   2.131095349  -0.079804274
C        6.166330979   3.556586131  -0.027364461
C        4.942160858   4.263210975   0.100677040
C        4.960159704   5.698244254   0.124298159
C        3.788776212   6.459667847   0.312660960
C        3.712700773   7.850692917   0.109980123
C        2.462816663   8.553950426   0.085385454
C        2.464195454   9.965158991  -0.047360299
C        9.862959513   0.003710037  -0.099184263
C        9.861103299   1.423411237  -0.117045782
C        8.627569666   2.135487176  -0.109926465
C        8.628393021   3.557853459  -0.107700644
C        7.400276098   4.270205752  -0.081407595
C        7.404666892   5.692532973  -0.098210911
C        6.181929018   6.409528484  -0.036080450
C        6.170199099   7.832818528  -0.078751362
C        4.941477442   8.553093972  -0.048532446
C        4.932955505   9.970591974  -0.112040720
K_POINTS automatic
1  1  1  0  0  0 
