&CONTROL
calculation = 'relax' ,
restart_mode = 'from_scratch' ,
outdir = '/tmp' ,
pseudo_dir = '/home/cristian/Escritorio/Proyecto_Grafeno/pseudopotenciales', 
prefix = 'vanadio-top-2.1' ,
verbosity = 'high'
/
&SYSTEM
  ibrav = 4,
  a = 12.32648675,
  c = 10,
  nat  = 52,
  ntyp = 3,
  ecutwfc = 70,
  ecutrho=490,
  occupations='smearing',
  smearing='mv',
  degauss=0.001,
  nspin = 2,
  starting_magnetization(1)=0.5,
  starting_magnetization(2)=0.3,
  starting_magnetization(3)=0.8,
  /
&ELECTRONS
  electron_maxstep = 400,
  conv_thr = 1.0d-10
  mixing_mode      = 'plain'
  mixing_beta      =  0.3D0
  diagonalization  = 'david'
  startingwfc      = 'atomic+random'
  mixing_ndim = 4,

/
&IONS
ion_dynamics      = 'bfgs'
/
ATOMIC_SPECIES
H   1.00794    H.pbe-rrkjus.UPF
C   12.0107    C.pbe-n-rrkjus_psl.1.0.0.UPF
V   50.9415    V.pbe-spnl-rrkjus_psl.1.0.0.UPF
ATOMIC_POSITIONS (angstrom)
H        2.463625166   5.694325791   3.697743424
H        2.466438365   5.692701589   4.451543150
C        0.000769327  -0.000444171  -0.215545220
C       -0.005471601   1.418230424  -0.179272607
C       -1.235374716   2.133106849  -0.171226088
C       -1.234154528   3.557573178  -0.113351775
C       -2.468277199   4.268444909  -0.171233776
C       -2.472466203   5.691247609  -0.179274588
C       -3.697995642   6.405966321  -0.215566629
C       -3.697793441   7.828265579  -0.223204505
C       -4.929242612   8.540996496  -0.215323256
C       -4.930492917   9.963321856  -0.223217381
C        2.465145505  -0.001648924  -0.215323256
C        2.465378219   1.416248179  -0.147333757
C        1.225248241   2.121192366  -0.104143497
C        1.221372378   3.529329645   0.087602364
C       -0.010819201   4.263674659   0.045627024
C       -0.030869808   5.698189400   0.087591220
C       -1.248187720   6.405470703  -0.104088928
C       -1.238765361   7.831901958  -0.147260237
C       -2.466862422   8.540944127  -0.215265411
C       -2.465130204   9.963300934  -0.223204505
C        4.929759359  -0.000424991  -0.215566629
C        4.936055415   1.418130069  -0.179305990
C        3.705294086   2.121230286  -0.104184074
C        3.709224770   3.529291155   0.087559458
C        2.465305330   4.162813308   0.334886847
V        2.465374733   5.693315678   1.425961853
C        1.139898433   6.458579776   0.334974099
C        1.213031696   7.852690004   0.087591220
C       -0.008150837   8.553277588  -0.104088928
C       -0.001754735   9.970645403  -0.179274588
C        7.395766425   0.003368304  -0.171233776
C        7.397878883   1.424459769  -0.203070398
C        6.166084764   2.133194591  -0.171220515
C        6.164709833   3.557503562  -0.113335904
C        4.941502251   4.263722788   0.045571822
C        4.961399963   5.698122208   0.087559458
C        3.790793965   6.458626967   0.334886847
C        3.717440434   7.852646336   0.087602364
C        2.465383206   8.552583039   0.045627024
C        2.465217364   9.965073250  -0.113351775
C        9.861474672   0.003312463  -0.171226088
C        9.859083351   1.424556017  -0.203055314
C        8.628609570   2.134970386  -0.208975925
C        8.628564470   3.556069735  -0.203070398
C        7.398885050   4.268467322  -0.171220515
C        7.403134417   5.691236247  -0.179305990
C        6.178851103   6.405556714  -0.104184074
C        6.169425584   7.831846408  -0.147333757
C        4.938861020   8.553358379  -0.104143497
C        4.932284000   9.970673999  -0.179272607
K_POINTS automatic
1  1  1  0  0  0 
