&CONTROL
calculation = 'relax' ,
restart_mode = 'from_scratch' ,
outdir = '/tmp' ,
pseudo_dir = '/home/cristian/Escritorio/Proyecto_Grafeno/pseudopotenciales', 
prefix = 'cobre-sixhollow-2.8' ,
verbosity = 'high'
/
&SYSTEM
  ibrav = 4,
  a = 12.32648675,
  c = 10,
  nat  = 52,
  ntyp = 3,
  ecutwfc = 70,
  ecutrho=490,
  occupations='smearing',
  smearing='mv',
  degauss=0.001,
  input_dft='rvv10'
  nspin = 2,
  starting_magnetization(1)=0.5,
  starting_magnetization(2)=0.3,
  starting_magnetization(3)=0.8,
  /
&ELECTRONS
  electron_maxstep = 400,
  conv_thr = 1.0d-10
  mixing_mode      = 'plain'
  diagonalization  = 'david'
  startingwfc      = 'atomic+random'

/
&IONS
ion_dynamics      = 'bfgs'
/
ATOMIC_SPECIES
H   1.00794    H.pbe-rrkjus.UPF
C   12.0107   C.pbe-n-rrkjus_psl.1.0.0.UPF
Cu  63.546    Cu.pbe-dn-rrkjus_psl.1.0.0.UPF  
ATOMIC_POSITIONS (angstrom)
H        3.692559471   4.984800239   2.785121434
H        3.729614703   4.963406391   3.543678454
C       -0.003944547   0.002277386  -0.034581679
C        0.008659370   1.437420842  -0.052886619
C       -1.222869455   2.137419182  -0.037540039
C       -1.215945919   3.564453748  -0.089929993
C       -2.454464324   4.269327234  -0.050899400
C       -2.487341604   5.694141372  -0.082610649
C       -3.711730913   6.407537810  -0.008784388
C       -3.715545607   7.831648155   0.021879173
C       -4.943655246   8.543705890   0.022453264
C       -4.940065992   9.968848874   0.009052837
C        2.455592784   0.009478086   0.022453264
C        2.470509396   1.435797470  -0.018151255
C        1.248601701   2.158011695  -0.056869070
C        1.259895947   3.606103568  -0.051212914
C        0.003810473   4.291441184  -0.101088189
C       -0.047381869   5.718934892  -0.066614246
C       -1.278678687   6.424569096  -0.145189806
C       -1.269476593   7.849633096  -0.106256957
C       -2.492060527   8.555492259  -0.007126515
C       -2.476935684   9.976983472   0.021879173
C        4.921530775   0.010684358  -0.008784388
C        4.940094615   1.425796362  -0.007162993
C        3.711888023   2.130048222  -0.029846118
C        3.747124084   3.551849981  -0.026128924
C        2.536245544   4.228590692   0.077888673
Cu       2.437816284   5.709226556   1.277355238
C        1.072724951   6.497362404   0.241565415
C        1.186809542   7.856617122  -0.066614246
C       -0.039936014   8.570134344  -0.145189806
C       -0.011698507   9.982080996  -0.082610649
C        7.401908747  -0.009035160  -0.050899400
C        7.414270322   1.406935178   0.028903332
C        6.186379101   2.112771900   0.004947063
C        6.208987583   3.531939791  -0.029375147
C        4.993301234   4.233816632  -0.063064410
C        4.960813103   5.654021028  -0.026128924
C        3.769299185   6.364302248   0.077888673
C        3.670214050   7.780896985  -0.051212914
C        2.448651527   8.526030107  -0.101088189
C        2.468362920   9.945863847  -0.089929993
C        9.863992712  -0.009673578  -0.037540039
C        9.871383180   1.417454707   0.017740237
C        8.643324734   2.126474582   0.055414193
C        8.651936930   3.550636627   0.028903332
C        7.426718788   4.261103256   0.004947063
C        7.398514813   5.683905050  -0.007162993
C        6.174511515   6.395437230  -0.029846118
C        6.155060989   7.817628034  -0.018151255
C        4.918651276   8.514724025  -0.056869070
C        4.922730095   9.948841010  -0.052886619
K_POINTS automatic
1  1  1  0  0  0 
