&CONTROL
calculation = 'relax' ,
restart_mode = 'from_scratch' ,
outdir = '/tmp' ,
pseudo_dir = '/home/cristian/Escritorio/Proyecto_Grafeno/pseudopotenciales', 
prefix = 'gr-12' ,
verbosity = 'low'
/
&SYSTEM
  ibrav = 4,
  a = 12.32648675,
  c = 10,
  nat  = 52,
  ntyp = 4,
  ecutwfc = 70,
  ecutrho=490,
  occupations='smearing',
  smearing='mv',
  degauss=0.001,
  vdw_corr = 'dft-d3',
/
&ELECTRONS
  electron_maxstep = 400,
  conv_thr = 1.0d-6
  mixing_mode      = 'plain'
  mixing_beta      = 0.3D0
  diagonalization  = 'david'
  startingwfc      = 'atomic+random'
/
&IONS
ion_dynamics      = 'bfgs'
/
ATOMIC_SPECIES
H1   1.00794    H.pbe-rrkjus.UPF
H2   1.00794    H.pbe-rrkjus.UPF
Cu  63.546    Cu.pbe-dn-rrkjus_psl.1.0.0.UPF
C    12.0107    C.pbe-n-rrkjus_psl.1.0.0.UPF 
ATOMIC_POSITIONS (angstrom)
H1       2.465388409   5.746090059   2.564762424
H2       2.465453244   6.496853428   2.631008218
Cu       2.465022903   5.526129583  -1.155484193
C        0.000000000   0.000000000   0.000000000    0   0   0
C        0.000000000   1.423340089   0.000000000    0   0   0
C       -1.232648675   2.135010133   0.000000000    0   0   0
C       -1.232648675   3.558350222   0.000000000    0   0   0
C       -2.465297350   4.270020266   0.000000000    0   0   0
C       -2.465297350   5.693360355   0.000000000    0   0   0
C       -3.697946025   6.405030399   0.000000000    0   0   0
C       -3.697946025   7.828370488   0.000000000    0   0   0
C       -4.930594700   8.540040532   0.000000000    0   0   0
C       -4.930594700   9.963380621   0.000000000    0   0   0
C        2.465297350   0.000000000   0.000000000    0   0   0
C        2.465297350   1.423340089   0.000000000    0   0   0
C        1.232648675   2.135010133   0.000000000    0   0   0
C        1.226865204   3.554951921   0.087192029
C        0.000000000   4.270020266   0.000000000    0   0   0
C       -0.023634237   5.695173563  -0.046513537
C       -1.232648675   6.405030399   0.000000000    0   0   0
C       -1.232648675   7.828370488   0.000000000    0   0   0
C       -2.465297350   8.540040532   0.000000000    0   0   0
C       -2.465297350   9.963380621   0.000000000    0   0   0
C        4.930594700   0.000000000   0.000000000    0   0   0
C        4.930594700   1.423340089   0.000000000    0   0   0
C        3.697946025   2.135010133   0.000000000    0   0   0
C        3.703618302   3.554762210   0.087306055
C        2.465111419   4.202250224   0.204899939
C        1.120146172   6.453995506  -0.255597061
C        1.228660585   7.837730440  -0.037209071
C        0.000000000   8.540040532   0.000000000    0   0   0
C        0.000000000   9.963380621   0.000000000    0   0   0
C        7.395892050   0.000000000   0.000000000    0   0   0
C        7.395892050   1.423340089   0.000000000    0   0   0
C        6.163243375   2.135010133   0.000000000    0   0   0
C        6.163243375   3.558350222   0.000000000    0   0   0
C        4.930594700   4.270020266   0.000000000    0   0   0
C        4.953673570   5.695282248  -0.047179599
C        3.810401172   6.453812116  -0.257577881
C        3.701512423   7.837598710  -0.038057289
C        2.465297350   8.540040532   0.000000000    0   0   0
C        2.465297350   9.963380621   0.000000000    0   0   0
C        9.861189400   0.000000000   0.000000000    0   0   0
C        9.861189400   1.423340089   0.000000000    0   0   0
C        8.628540725   2.135010133   0.000000000    0   0   0
C        8.628540725   3.558350222   0.000000000    0   0   0
C        7.395892050   4.270020266   0.000000000    0   0   0
C        7.395892050   5.693360355   0.000000000    0   0   0
C        6.163243375   6.405030399   0.000000000    0   0   0
C        6.163243375   7.828370488   0.000000000    0   0   0
C        4.930594700   8.540040532   0.000000000    0   0   0
C        4.930594700   9.963380621   0.000000000    0   0   0
K_POINTS automatic
2  2  1  0  0  0 
