&CONTROL
calculation = 'vc-relax' ,
restart_mode = 'from_scratch' ,
outdir = '/tmp' ,
pseudo_dir = '/home/cristian/Escritorio/Proyecto_Grafeno/pseudopotenciales', 
prefix = 'cr-2.89' ,
verbosity = 'low'
tstress = .true.
tprnfor = .true.
etot_conv_thr = 1.d-5
forc_conv_thr = 1.d-4
/
&SYSTEM
  ibrav = 0,
  nat  = 2,
  ntyp = 2,
  ecutwfc=80,
  ecutrho=800,
  occupations='smearing',
  smearing='methfessel-paxton',
  degauss=0.03,
  nspin = 2,
  starting_magnetization(1)=0.1,
  starting_magnetization(2)=-0.1,
  /
&ELECTRONS
      electron_maxstep = 400,
      conv_thr = 1.0d-6
      diagonalization  = 'david'
/
&IONS
    ion_dynamics = 'bfgs',
/
&CELL
    cell_dynamics = 'bfgs',
    cell_dofree = 'all',
    press_conv_thr = 0.5
/
ATOMIC_SPECIES
Cr1   51.9961    Cr.pbe-spn-rrkjus_psl.1.0.0.UPF
Cr2   51.9961    Cr.pbe-spn-rrkjus_psl.1.0.0.UPF
ATOMIC_POSITIONS  (angstrom)
Cr1   0.000000  0.000000  0.000000	
Cr2   1.448675  1.448675  1.448675
CELL_PARAMETERS {angstrom}
   2.89735  0.00  0.00	
   0.00  2.89735  0.00	
   0.00  0.00  2.89735
K_POINTS automatic
8  8  8  1  1  1
