
&CONTROL
calculation = 'vc-relax' ,
restart_mode = 'from_scratch' ,
outdir = '/tmp' ,
pseudo_dir = '/home/cristian/Escritorio/Proyecto_Grafeno/pseudopotenciales', 
prefix = 'mn-8.75' ,
verbosity = 'low'
tstress = .true.
tprnfor = .true.
etot_conv_thr = 1.d-4
forc_conv_thr = 1.d-3
/
&SYSTEM
  ibrav = 0,
  nat  = 2,
  ntyp = 2,
  ecutwfc = 60,
  ecutrho = 480,
  occupations='smearing',
  smearing='methfessel-paxton',
  degauss=0.03,
  nspin = 2,
  starting_magnetization(1)=0.1,
  starting_magnetization(2)=-0.1,
  /
&ELECTRONS
      electron_maxstep = 400,
      conv_thr = 1.0d-8
      diagonalization  = 'david'
/
&IONS
    ion_dynamics = 'bfgs',
/
&CELL
    cell_dynamics = 'bfgs',
    cell_dofree = 'all',
    press_conv_thr = 0.5
/
ATOMIC_SPECIES
Mn1   54.938044    Mn.pbe-spn-rrkjus_psl.0.3.1.UPF
Mn2   54.938044    Mn.pbe-spn-rrkjus_psl.0.3.1.UPF
ATOMIC_POSITIONS  (angstrom)
Mn1   0.0000  0.0000  0.0000	
Mn2   4.3750  4.3750  4.3750
CELL_PARAMETERS {angstrom}
   8.75  0.00  0.00	
   0.00  8.75  0.00	
   0.00  0.00  8.75
K_POINTS automatic
8  8  8  1  1  1
