&CONTROL
calculation = 'relax' ,
restart_mode = 'from_scratch' ,
outdir = '/tmp' ,
pseudo_dir = '/home/cristian/Escritorio/Proyecto_Grafeno/pseudopotenciales', 
prefix = 'niquel' ,
verbosity = 'high'
/
&SYSTEM
  ibrav = 4,
  a = 12.32648675,
  c = 10,
  nat  = 52,
  ntyp = 3,
  ecutwfc = 70,
  ecutrho=490,
  occupations='smearing',
  smearing='mv',
  degauss=0.001,
  nspin = 2,
  starting_magnetization(1)=0.5,
  starting_magnetization(2)=0.3,
  starting_magnetization(3)=1,
  /
&ELECTRONS
  electron_maxstep = 400,
  conv_thr = 1.0d-8
  mixing_mode      = 'plain'
  diagonalization  = 'david'
  startingwfc      = 'atomic+random'

/
&IONS
ion_dynamics      = 'bfgs'
/
ATOMIC_SPECIES
H   1.00794    H.pbe-rrkjus.UPF
C   12.01070    C.pbe-n-rrkjus_psl.1.0.0.UPF 
Ni  58.6934    Ni.pbe-spn-rrkjus_psl.1.0.0.UPF 
ATOMIC_POSITIONS (angstrom)
H        4.137511138   4.891692034   3.300644415
H        3.405773079   4.990864829   3.142997758
C        0.006303445  -0.003397783   0.007841070
C        0.001817704   1.402916336   0.000703612
C       -1.214959595   2.105017631  -0.001457962
C       -1.234756010   3.559880168  -0.002892419
C       -2.485675040   4.303081143  -0.002684072
C       -2.483835081   5.708922937  -0.008819604
C       -3.700599643   6.413573819   0.003623382
C       -3.699910823   7.816427967   0.001732265
C       -4.907332564   8.555066657   0.003774449
C       -4.943002247   9.970433375   0.002702636
C        2.463967004  -0.027800664   0.001748000
C        2.461594718   1.399598077  -0.007194288
C        1.205417815   2.084082037  -0.016021733
C        1.207585541   3.490969568  -0.013728446
C       -0.019650114   4.262108635   0.005177967
C       -0.067921790   5.715354520   0.026424001
C       -1.291534187   6.408108528  -0.021370918
C       -1.256331841   7.841012909  -0.011432275
C       -2.492064534   8.555329431  -0.001847646
C       -2.456572096   9.970425049   0.002170772
C        4.921994154  -0.001873792   0.001844019
C        4.922248093   1.403445994  -0.000426654
C        3.720245620   2.087558402  -0.010083145
C        3.707322307   3.492045777   0.018890542
C        2.465307817   4.002476556   0.028997036
Ni       2.441856574   5.708409106  -0.610740274
C        1.009412160   6.532845667   0.178372289
C        1.178134981   7.874602253   0.044137743
C       -0.032029583   8.588462694  -0.015143732
C       -0.023681625   9.970694094  -0.007692294
C        7.356626779   0.000164141  -0.000654161
C        7.391483312   1.425536606  -0.000985978
C        6.139015028   2.107658585   0.004484733
C        6.156339170   3.561978174   0.014734824
C        4.940366029   4.264698267   0.021670877
C        4.994353909   5.716844800  -0.002273552
C        3.939823068   6.544258333  -0.077115481
C        3.744347314   7.884905766  -0.022572100
C        2.462234943   8.559626376   0.013353757
C        2.462238646   9.963164947   0.002317874
C        9.895032616  -0.001719720  -0.000323608
C        9.858660756   1.424189512  -0.002308324
C        8.625046342   2.136500065  -0.001803605
C        8.623956385   3.559813464  -0.002815641
C        7.406588777   4.304054052   0.003362347
C        7.409350231   5.709372980   0.006623151
C        6.215957093   6.409461509  -0.000052503
C        6.182742660   7.843352620   0.000535323
C        4.960736182   8.589131397  -0.004245461
C        4.949224933   9.972570319   0.007821037
K_POINTS automatic
1  1  1  0  0  0
