&CONTROL
calculation = 'scf' ,
restart_mode = 'from_scratch' ,
outdir = '/tmp' ,
pseudo_dir = '/home/cristian/Escritorio/Proyecto_Grafeno/pseudopotenciales', 
prefix = 'c-10' ,
verbosity = 'high'
/
&SYSTEM
  ibrav = 0,
  nat  = 8,
  ntyp = 1,
  ecutwfc = 80,
  ecutrho=  800,
  occupations='smearing',
  smearing='mv',
  degauss=0.02,
  /
&ELECTRONS
  electron_maxstep = 400,
  conv_thr = 1.0d-6
  diagonalization  = 'david'
/
ATOMIC_SPECIES
C   12.011   C.pbe-n-rrkjus_psl.1.0.0.UPF 
ATOMIC_POSITIONS (angstrom)
C   0.0000  0.0000  0.0000	
C   1.7830  1.7830  0.0000
C   0.0000  1.7830  1.7830
C   1.7830  0.0000  1.7830 
C   .8915  .8915  .8915
C   2.6745  2.6745  .8915
C   .8915  2.6745  2.6745
C   2.6745  .8915  2.6745
CELL_PARAMETERS {angstrom}
   3.566  0.00  0.00	
   0.00  3.566  0.00	
   0.00  0.00  3.566
K_POINTS automatic
8  8  8  0  0  0 
