&CONTROL
calculation = 'relax' ,
restart_mode = 'from_scratch' ,
outdir = '/tmp' ,
pseudo_dir = '/home/cristian/Escritorio/Proyecto_Grafeno/pseudopotenciales', 
prefix = 'niquel-sixhollow-2.8' ,
verbosity = 'high'
/
&SYSTEM
  ibrav = 4,
  a = 12.32648675,
  c = 10,
  nat  = 52,
  ntyp = 3,
  ecutwfc = 70,
  ecutrho=490,
  occupations='smearing',
  smearing='mv',
  degauss=0.001,
  input_dft='rvv10'
  nspin = 2,
  starting_magnetization(1)=0.5,
  starting_magnetization(2)=0.3,
  starting_magnetization(3)=1,
  /
&ELECTRONS
  electron_maxstep = 400,
  conv_thr = 1.0d-9
  mixing_mode      = 'plain'
  diagonalization  = 'david'
  startingwfc      = 'atomic+random'

/
&IONS
ion_dynamics      = 'bfgs'
/
ATOMIC_SPECIES
H   1.00794    H.pbe-rrkjus.UPF
C   12.01070    C.pbe-n-rrkjus_psl.1.0.0.UPF 
Ni  58.6934    Ni.pbe-spn-rrkjus_psl.1.0.0.UPF 
ATOMIC_POSITIONS (angstrom)
H        4.081982045   4.968114834   3.017299153
H        3.334211629   4.984361575   2.987562619
C        0.002557105  -0.001552226  -0.014651278
C       -0.004619124   1.421166461   0.001162062
C       -1.234739703   2.131684846  -0.009453296
C       -1.236399206   3.556147209   0.021028792
C       -2.469538041   4.270044434  -0.009307049
C       -2.469769164   5.690475201  -0.000859271
C       -3.698498051   6.408122755  -0.016676676
C       -3.698071298   7.828371250  -0.016344909
C       -4.930141835   8.540413841  -0.011714755
C       -4.930736747   9.963630997  -0.014451519
C        2.465480012  -0.000359196  -0.013727946
C        2.465782639   1.423398019   0.020025894
C        1.228576246   2.126623429   0.048353019
C        1.218934031   3.550108157   0.081258323
C       -0.016526963   4.260430608   0.091190342
C       -0.014420629   5.685683930   0.093451162
C       -1.242426102   6.406094364   0.050620249
C       -1.232707085   7.828849240   0.018948927
C       -2.465937153   8.540727136  -0.016512510
C       -2.465077083   9.963822010  -0.017959539
C        4.928098080  -0.000848045  -0.018641498
C        4.935164706   1.422418339   0.003943644
C        3.701489243   2.127370451   0.053224499
C        3.712168628   3.551669327   0.086393016
C        2.464792353   4.179879193  -0.014598140
Ni       2.447437367   5.694057092  -0.969355206
C        1.155455782   6.449420530   0.015777841
C        1.232985788   7.844807756   0.095965062
C       -0.005446475   8.547925166   0.052606481
C        0.000907936   9.968736343  -0.000040688
C        7.394067180   0.004087879  -0.007041585
C        7.398658724   1.425134603  -0.013249394
C        6.165760089   2.131813544  -0.002908934
C        6.166581231   3.556789709   0.029840122
C        4.946092821   4.261409607   0.092696790
C        4.943230042   5.684986028   0.076544142
C        3.777218223   6.451300265  -0.041963343
C        3.697741564   7.844031167   0.073047163
C        2.465693017   8.558886675   0.091059027
C        2.465672087   9.967710306   0.023843962
C        9.863111049   0.003755532  -0.007435911
C        9.858929849   1.424844067  -0.016093704
C        8.628822282   2.135193784  -0.004887129
C        8.628561214   3.555589053  -0.014280803
C        7.399973307   4.269831259  -0.003020383
C        7.399033211   5.690392298   0.005675287
C        6.171536653   6.406112289   0.051554665
C        6.163500600   7.828461232   0.020499030
C        4.935633436   8.547493330   0.048134028
C        4.929974043   9.968278493   0.003470162
K_POINTS automatic
1  1  1  0  0  0
