&CONTROL
calculation = 'vc-relax' ,
restart_mode = 'from_scratch' ,
outdir = '/tmp' ,
pseudo_dir = '/home/cristian/Escritorio/Proyecto_Grafeno/pseudopotenciales', 
prefix = 'gr-relax' ,
verbosity = 'high'
forc_conv_thr=1.0d-4
etot_conv_thr=1.0d-6
/
&SYSTEM
  ibrav = 4,
  a = 2.463,
  c = 12,
  nat  = 2,
  ntyp = 1,
  ecutwfc = 70,
  ecutrho=490,
  occupations='smearing',
  smearing='mv',
  degauss=0.001,
  /
&ELECTRONS
  electron_maxstep = 400,
  conv_thr = 1.0d-6
  mixing_mode      = 'plain'
  mixing_beta      = 0.2D0
  diagonalization  = 'david'
  startingwfc      = 'atomic+random'
/
&IONS
ion_dynamics      = 'bfgs'
/
&CELL
  press_conv_thr=0.5D0
  cell_dynamics='bfgs',
  cell_dofree='2Dxy'
/
ATOMIC_SPECIES
C   12.0107   C.pbe-n-rrkjus_psl.1.0.0.UPF 
ATOMIC_POSITIONS (crystal)
C    0.0000000000    0.0000000000    0.0000000000
C    0.3333333333    0.6666666666    0.0000000000
K_POINTS automatic
12  12  1  0  0  0 
