&CONTROL
calculation = 'relax' ,
restart_mode = 'from_scratch' ,
outdir = '/tmp' ,
pseudo_dir = '/home/cristian/Escritorio/Proyecto_Grafeno/pseudopotenciales', 
prefix = 'cobre-sixhollow-3.0' ,
verbosity = 'high'
/
&SYSTEM
  ibrav = 4,
  a = 12.32648675,
  c = 10,
  nat  = 52,
  ntyp = 3,
  ecutwfc = 70,
  ecutrho=490,
  occupations='smearing',
  smearing='mv',
  degauss=0.001,
  input_dft='rvv10'
  nspin = 2,
  starting_magnetization(1)=0.5,
  starting_magnetization(2)=0.3,
  starting_magnetization(3)=0.8,
  /
&ELECTRONS
  electron_maxstep = 400,
  conv_thr = 1.0d-10
  mixing_mode      = 'plain'
  diagonalization  = 'david'
  startingwfc      = 'atomic+random'

/
&IONS
ion_dynamics      = 'bfgs'
/
ATOMIC_SPECIES
H   1.00794    H.pbe-rrkjus.UPF
C   12.0107   C.pbe-n-rrkjus_psl.1.0.0.UPF
Cu  63.546    Cu.pbe-dn-rrkjus_psl.1.0.0.UPF  
ATOMIC_POSITIONS (angstrom)
H        4.131488627   5.236993128   2.866492889
H        3.404581920   5.040049171   3.041175098
C       -0.013762016  -0.007022875  -0.105796043
C       -0.005798186   1.418875373  -0.059887066
C       -1.230777818   2.140723980  -0.068511392
C       -1.217109195   3.571155265   0.002678582
C       -2.459573002   4.272500862  -0.059178047
C       -2.464912231   5.692692839  -0.082437942
C       -3.700496967   6.400719751  -0.126684892
C       -3.713168937   7.822590808  -0.149206948
C       -4.944685363   8.531399153  -0.154719942
C       -4.944875259   9.953789422  -0.133746304
C        2.451088809  -0.012225399  -0.113198591
C        2.459355007   1.405352613  -0.027945457
C        1.229852839   2.125668140   0.004517898
C        1.245857623   3.556112612   0.156000691
C        0.006561240   4.284673672   0.175399520
C       -0.012422427   5.717334961   0.270185525
C       -1.239698905   6.410589628   0.007373619
C       -1.251141675   7.831627507  -0.067434782
C       -2.481687837   8.533451606  -0.146295349
C       -2.478229591   9.954962142  -0.146476412
C        4.921249363  -0.015340023  -0.141631547
C        4.938944345   1.398541173  -0.066675710
C        3.706457193   2.092340424   0.012529241
C        3.724526992   3.504388190   0.145914392
C        2.507950428   4.150049710   0.351897843
Cu       2.597363680   5.732369662   1.472115778
C        1.104105565   6.522108869   0.633109132
C        1.192376013   7.861926070   0.200976517
C       -0.023597462   8.549644261  -0.049397362
C       -0.008646442   9.962910778  -0.152483977
C        7.386899795  -0.002388619  -0.149300875
C        7.402081247   1.416710187  -0.128385086
C        6.169981900   2.115583005  -0.058763000
C        6.174592230   3.538693312  -0.013050720
C        4.952117400   4.233282575   0.072461844
C        4.929412374   5.668224032   0.008392476
C        3.728200088   6.393508669  -0.004784592
C        3.667975139   7.803351619  -0.034577941
C        2.436132499   8.542750614   0.021822734
C        2.451049433   9.954036549  -0.120059083
C        9.851361050  -0.003919983  -0.141947574
C        9.865334800   1.421490623  -0.132561092
C        8.633523064   2.131940525  -0.126364372
C        8.637362402   3.554573841  -0.097280050
C        7.405397686   4.260874990  -0.071294694
C        7.397645597   5.682806308  -0.090285840
C        6.165462042   6.394907237  -0.076311904
C        6.147956851   7.817545982  -0.123788218
C        4.912267214   8.528051015  -0.106989260
C        4.914830405   9.954920195  -0.115591717
K_POINTS automatic
1  1  1  0  0  0 
